p cnf 12 50 
11 2 -6 0
-4 3 8 0
3 8 5 0
11 3 -8 0
2 4 8 0
-9 4 -11 0
6 8 -11 0
-1 7 12 0
-1 5 -6 0
3 11 12 0
3 -7 -12 0
7 12 4 0
-11 3 -8 0
-3 -2 -11 0
-8 -5 -7 0
-6 7 5 0
7 -5 9 0
2 11 -12 0
-12 1 5 0
-12 4 -11 0
-12 -6 -8 0
4 1 -2 0
-7 -9 11 0
-8 -2 -11 0
3 -2 1 0
8 -5 -7 0
-5 -8 -2 0
-3 1 4 0
9 5 4 0
7 -4 -10 0
-11 -5 -4 0
-2 10 -5 0
3 4 5 0
1 -4 8 0
5 -8 9 0
-1 9 8 0
5 -1 6 0
6 7 10 0
-9 -12 -11 0
10 8 -2 0
12 -5 -7 0
-1 12 7 0
8 -12 10 0
5 7 -8 0
1 6 9 0
-2 4 7 0
3 10 -12 0
4 -5 8 0
-2 -6 5 0
1 -6 4 0
